benchmarks/bfuzz0/23916407156481113424066273532797121729.smt2
(set-logic QF_FP)
(declare-const x0 (_ FloatingPoint 11 53))
(declare-const x1 (_ FloatingPoint 11 53))
(declare-const x2 (_ FloatingPoint 11 53))
(declare-const x3 (_ FloatingPoint 11 53))
(declare-const x4 (_ FloatingPoint 11 53))
(declare-const x5 (_ FloatingPoint 11 53))
(declare-const x6 (_ FloatingPoint 11 53))
(declare-const x7 (_ FloatingPoint 11 53))
(declare-const x8 (_ FloatingPoint 11 53))
(declare-const x9 (_ FloatingPoint 11 53))
(declare-const x10 (_ FloatingPoint 11 53))
(declare-const x11 (_ FloatingPoint 11 53))
(declare-const x12 (_ FloatingPoint 11 53))
(declare-const x13 (_ FloatingPoint 11 53))
(declare-const x14 (_ FloatingPoint 11 53))
(assert (fp.lt (fp.neg x7) (fp.neg x11)))
(assert (fp.lt (fp.mul RNE x10 x4) (fp.mul RNE x7 x13)))
(assert (fp.eq (fp.sub RNE x11 x4) (fp.mul RNE x2 x12)))
(assert (fp.eq (fp.mul RNE x7 x8) (fp.neg x14)))
(assert (fp.lt (fp.neg x11) (fp.sub RNE x4 x6)))
(assert (fp.eq (fp.mul RNE x4 x12) (fp.sub RNE x11 x3)))
(assert (fp.lt (fp.neg x9) (fp.neg x14)))
(assert (fp.lt (fp.neg x2) (fp.add RNE x8 x3)))
(assert (fp.lt (fp.neg x9) (fp.neg x3)))
(assert (fp.lt (fp.neg x7) (fp.mul RNE x7 x14)))
(assert (fp.lt (fp.add RNE x11 x13) (fp.neg x4)))
(assert (fp.gt (fp.mul RNE x10 x6) (fp.sub RNE x3 x13)))
(check-sat)
