db/data/23916407156481113424066273532797121729.z3.out
sat
-------------------
781.132960951
